6 
15 
9 
6 
3 
12 
12 
7 
8 
9 
11 
11 
4 
7 
11 
9 
10 
15 
6 
9 
12 
12 
6 
8 
8 
5 
10 
6 
8 
6 
11 
8 
8 
10 
7 
5 
15 
9 
7 
11 
4 
12 
7 
6 
7 
6 
15 
6 
3 
8 
6 
5 
12 
9 
9 
7 
7 
10 
8 
5 
8 
8 
7 
8 
11 
10 
10 
8 
13 
12 
8 
6 
9 
9 
11 
8 
10 
9 
4 
8 
9 
8 
9 
8 
9 
7 
6 
9 
13 
6 
8 
4 
7 
7 
4 
10 
4 
12 
8 
9 
